presolving:
(round 1, fast)       2582 del vars, 282 del conss, 0 add conss, 200 chg bounds, 0 chg sides, 0 chg coeffs, 0 upgd conss, 0 impls, 12512 clqs
   (0.1s) running MILP presolver
   (0.1s) MILP presolver (3 rounds): 0 aggregations, 0 fixings, 0 bound changes
(round 2, medium)     2582 del vars, 17351 del conss, 12530 add conss, 200 chg bounds, 0 chg sides, 0 chg coeffs, 0 upgd conss, 0 impls, 12512 clqs
(round 3, exhaustive) 2582 del vars, 17351 del conss, 12530 add conss, 200 chg bounds, 0 chg sides, 0 chg coeffs, 12530 upgd conss, 0 impls, 12512 clqs
   (5.8s) probing: 1000/10100 (9.9%) - 0 fixings, 0 aggregations, 4825150 implications, 0 bound changes
   (5.8s) probing: 1001/10100 (9.9%) - 0 fixings, 0 aggregations, 4831858 implications, 0 bound changes
   (5.8s) probing aborted: 1000/1000 successive useless probings
   (5.9s) symmetry computation started: requiring (bin +, int -, cont +), (fixed: bin -, int +, cont -)
   (5.9s) no symmetry present
presolving (4 rounds: 4 fast, 3 medium, 2 exhaustive):
 2582 deleted vars, 17351 deleted constraints, 12530 added constraints, 200 tightened bounds, 0 added holes, 0 changed sides, 0 changed coefficients
 8378 implications, 49424 cliques
presolved problem has 10118 variables (10100 bin, 0 int, 0 impl, 18 cont) and 12530 constraints
     18 constraints of type <varbound>
  12512 constraints of type <setppc>
Presolving Time: 5.89

 time | node  | left  |LP iter|LP it/n|mem/heur|mdpt |vars |cons |rows |cuts |sepa|confs|strbr|  dualbound   | primalbound  |  gap   | compl. 
p 6.0s|     1 |     0 |   160 |     - |  clique|   0 |  10k|  12k|  12k|   0 |  0 |   0 |   0 | 0.000000e+00 | 6.628706e+04 |    Inf | unknown
  6.6s|     1 |     0 |  2510 |     - |   146M |   0 |  10k|  12k|  12k|   0 |  0 |  12 |   0 | 3.819107e+04 | 6.628706e+04 |  73.57%| unknown
  7.7s|     1 |     0 |  2821 |     - |   149M |   0 |  10k|  12k|  12k|   2 |  1 |  13 |   0 | 3.827942e+04 | 6.628706e+04 |  73.17%| unknown
  8.6s|     1 |     0 |  2993 |     - |   151M |   0 |  10k|  12k|  12k|   3 |  2 |  13 |   0 | 3.832215e+04 | 6.628706e+04 |  72.97%| unknown
  9.6s|     1 |     0 |  3160 |     - |   153M |   0 |  10k|  12k|  12k|   6 |  3 |  13 |   0 | 3.837741e+04 | 6.628706e+04 |  72.72%| unknown
 10.5s|     1 |     0 |  3206 |     - |   154M |   0 |  10k|  12k|  12k|   7 |  4 |  14 |   0 | 3.838673e+04 | 6.628706e+04 |  72.68%| unknown
 11.6s|     1 |     0 |  3316 |     - |   155M |   0 |  10k|  12k|  12k|   9 |  5 |  14 |   0 | 3.840702e+04 | 6.628706e+04 |  72.59%| unknown
 12.6s|     1 |     0 |  3392 |     - |   157M |   0 |  10k|  12k|  12k|  11 |  6 |  14 |   0 | 3.841650e+04 | 6.628706e+04 |  72.55%| unknown
 13.6s|     1 |     0 |  3487 |     - |   158M |   0 |  10k|  12k|  12k|  12 |  7 |  14 |   0 | 3.844610e+04 | 6.628706e+04 |  72.42%| unknown
 14.7s|     1 |     0 |  3585 |     - |   160M |   0 |  10k|  12k|  12k|  14 |  8 |  14 |   0 | 3.846015e+04 | 6.628706e+04 |  72.35%| unknown
 15.7s|     1 |     0 |  3681 |     - |   162M |   0 |  10k|  12k|  12k|  15 |  9 |  14 |   0 | 3.847332e+04 | 6.628706e+04 |  72.29%| unknown
 16.7s|     1 |     0 |  3711 |     - |   163M |   0 |  10k|  12k|  12k|  17 | 10 |  15 |   0 | 3.847798e+04 | 6.628706e+04 |  72.27%| unknown
 16.8s|     1 |     0 |  3842 |     - |   164M |   0 |  10k|  12k|  12k|  19 | 11 |  15 |   0 | 3.849850e+04 | 6.628706e+04 |  72.18%| unknown
 17.0s|     1 |     0 |  3917 |     - |   166M |   0 |  10k|  12k|  12k|  20 | 12 |  16 |   0 | 3.851040e+04 | 6.628706e+04 |  72.13%| unknown
 17.2s|     1 |     0 |  4012 |     - |   167M |   0 |  10k|  12k|  12k|  22 | 13 |  16 |   0 | 3.851950e+04 | 6.628706e+04 |  72.09%| unknown
 time | node  | left  |LP iter|LP it/n|mem/heur|mdpt |vars |cons |rows |cuts |sepa|confs|strbr|  dualbound   | primalbound  |  gap   | compl. 
 17.4s|     1 |     0 |  4134 |     - |   169M |   0 |  10k|  12k|  12k|  24 | 14 |  16 |   0 | 3.853596e+04 | 6.628706e+04 |  72.01%| unknown
 17.5s|     1 |     0 |  4206 |     - |   170M |   0 |  10k|  12k|  12k|  25 | 15 |  16 |   0 | 3.854663e+04 | 6.628706e+04 |  71.97%| unknown
 17.7s|     1 |     0 |  4316 |     - |   171M |   0 |  10k|  12k|  12k|  27 | 16 |  16 |   0 | 3.855707e+04 | 6.628706e+04 |  71.92%| unknown
d21.1s|     1 |     0 | 12115 |     - |farkasdi|   0 |  10k|  12k|  12k|   0 | 18 |  16 |   0 | 3.855707e+04 | 5.928816e+04 |  53.77%| unknown
 25.1s|     1 |     0 | 26005 |     - |   176M |   0 |  10k|  12k|  12k|  27 | 18 |  16 |   0 | 3.855707e+04 | 5.928816e+04 |  53.77%| unknown
 25.3s|     1 |     0 | 26099 |     - |   176M |   0 |  10k|  12k|  12k|  28 | 19 |  16 |   0 | 3.856433e+04 | 5.928816e+04 |  53.74%| unknown
 25.3s|     1 |     0 | 26110 |     - |   177M |   0 |  10k|  12k|  12k|  29 | 20 |  16 |   0 | 3.856437e+04 | 5.928816e+04 |  53.74%| unknown
 32.6s|     1 |     2 | 26110 |     - |   178M |   0 |  10k|  12k|  12k|  29 | 20 |  16 |  20 | 3.880617e+04 | 5.928816e+04 |  52.78%| unknown
*39.1s|     4 |     3 | 27786 |7841.7 |strongbr|   3 |  10k|  12k|  12k|  29 |  1 |  16 |  61 | 3.880617e+04 | 4.821510e+04 |  24.25%| unknown
*39.2s|     4 |     3 | 27825 |7854.7 |strongbr|   3 |  10k|  12k|  12k|  29 |  2 |  16 |  62 | 3.880617e+04 | 4.503155e+04 |  16.04%| unknown
*40.1s|     4 |     3 | 27895 |7878.0 |strongbr|   3 |  10k|  12k|  12k|  29 |  7 |  20 |  99 | 3.880617e+04 | 4.447023e+04 |  14.60%| unknown
*41.8s|     6 |     3 | 28336 |4815.0 |strongbr|   4 |  10k|  12k|  12k|  29 |  6 |  28 | 125 | 3.880617e+04 | 4.443050e+04 |  14.49%|   8.07%
*62.1s|    15 |     4 | 31480 |1944.2 |strongbr|   5 |  10k|  12k|  12k|  29 |  2 |  46 | 328 | 3.938284e+04 | 4.387111e+04 |  11.40%|  27.38%
*71.6s|    20 |     3 | 34177 |1574.5 |strongbr|   5 |  10k|  12k|  12k|  29 |  5 |  48 | 410 | 3.938284e+04 | 4.375737e+04 |  11.11%|  39.21%
*97.4s|    96 |     3 | 53313 | 516.3 |    LP  |  15 |  10k|7526 |  12k|  43 |  2 |  69 | 490 | 4.127477e+04 | 4.359455e+04 |   5.62%|  80.25%
 time | node  | left  |LP iter|LP it/n|mem/heur|mdpt |vars |cons |rows |cuts |sepa|confs|strbr|  dualbound   | primalbound  |  gap   | compl. 
 97.6s|   100 |     1 | 53647 | 498.8 |   191M |  15 |  10k|7527 |  12k|  43 |  0 |  73 | 490 | 4.127477e+04 | 4.359455e+04 |   5.62%|  86.85%
*98.2s|   110 |     3 | 55313 | 468.4 |    LP  |  15 |  10k|7527 |  12k|  43 |  2 |  73 | 490 | 4.127477e+04 | 4.351567e+04 |   5.43%|  91.18%
*98.7s|   118 |     3 | 56337 | 445.1 |    LP  |  15 |  10k|7527 |  12k|  43 |  2 |  73 | 490 | 4.183946e+04 | 4.349222e+04 |   3.95%|  93.29%
*99.7s|   127 |     2 | 56891 | 417.7 |    LP  |  15 |  10k|7520 |  12k|  60 |  4 |  73 | 490 | 4.183946e+04 | 4.326096e+04 |   3.40%|  94.86%

SCIP Status        : problem is solved [optimal solution found]
Solving Time (sec) : 103.81
Solving Nodes      : 147
Primal Bound       : +4.32609644696825e+04 (12 solutions)
Dual Bound         : +4.32609644696825e+04
Gap                : 0.00 %
Solve Status: optimal
Solve Time: 103.81 seconds
Objective Value: 43260.96
